100 100
9 32
13 41
46 41
3 23
38 45
32 40
11 37
43 26
11 35
30 27
30 12
19 10
40 27
27 38
9 2
19 17
47 31
39 36
24 1
5 3
9 41
44 4
35 33
8 9
11 27
13 48
42 3
37 10
26 14
39 38
49 38
12 15
7 30
28 44
24 6
38 41
14 13
50 7
18 39
35 12
28 38
49 29
12 37
7 42
46 1
20 33
33 31
32 12
42 4
7 10
10 19
32 36
50 6
7 13
22 22
45 30
33 39
24 22
15 34
22 11
36 26
27 6
16 33
24 4
1 39
3 7
46 49
12 13
44 40
48 14
1 39
1 8
20 34
23 4
41 41
24 17
4 20
46 35
14 47
34 18
13 10
42 47
13 33
43 21
30 24
13 24
31 3
22 3
10 20
37 14
10 45
42 45
2 40
41 13
12 43
19 29
49 22
19 2
32 46
47 10
